10
0   63   91   56   20   154   67   67   191   59   
63   0   67   53   38   79   152   180   89   106   
91   67   0   66   145   40   57   99   49   35   
56   53   66   0   55   147   50   35   85   170   
20   38   145   55   0   90   198   49   66   41   
154   79   40   147   90   0   138   22   78   159   
67   152   57   50   198   138   0   97   61   107   
67   180   99   35   49   22   97   0   141   58   
191   89   49   85   66   78   61   141   0   62   
59   106   35   170   41   159   107   58   62   0   
